Optimal - objective value 760.00000000
      0 x_0                    1                       0
      7 x_7                    1                       0
     14 x_14                   1                       0
     18 x_18                   1                       5
     21 x_21                   1         -0.999999999999995
     25 x_25                   1                      12
     33 x_33                   1                       0
     36 x_36                   1                     -18
     42 x_42                   1         -0.666666666666668
     45 x_45                   1         17.6666666666667
     48 x_48                   1                      21
     58 x_58                   1                      17
     62 x_62                   1         1.66666666666667
     64 x_64                   1                       0
     67 x_67                   1                       0
     72 x_72                   1                       0
     77 x_77                   1                      16
     81 x_81                   1                       0
     83 x_83                   1         -5.33333333333333
     86 x_86                   1                       0
     89 x_89                   1                       0
     95 x_95                   1                       0
     96 x_96                   1                       0
    102 x_102                  1                      -7
    108 x_108                  1                       0
    109 x_109                  1                       5
    115 x_115                  1                       0
    123 x_123                  1                       0
    127 x_127                  1                       0
    129 x_129                  1                       0
    137 x_137                  1                       1
    138 x_138                  1                       6
    141 x_141                  1                       0
    147 x_147                  1                      15
    150 x_150                  1                       0
    153 x_153                  1                       5
    160 x_160                  1                      14
    164 x_164                  1         -15.6666666666667
    167 x_167                  1                       0
    169 x_169                  1                      15
    173 x_173                  1                       0
    178 x_178                  1                       6
    185 x_185                  1                       0
    189 x_189                  1                      -2
    192 x_192                  1                       0
    194 x_194                  1                      22
    200 x_200                  1                      -9
    203 x_203                  1                      -8
    209 x_209                  1                       4
    213 x_213                  1                       5
Optimal - objective value 760.00000000
      0 x_0                    1                       0
      7 x_7                    1                       0
     14 x_14                   1                       0
     18 x_18                   1                       5
     21 x_21                   1         -0.999999999999995
     25 x_25                   1                      12
     33 x_33                   1                       0
     36 x_36                   1                     -18
     42 x_42                   1         -0.666666666666668
     45 x_45                   1         17.6666666666667
     48 x_48                   1                      21
     58 x_58                   1                      17
     62 x_62                   1         1.66666666666667
     64 x_64                   1                       0
     67 x_67                   1                       0
     72 x_72                   1                       0
     77 x_77                   1                      16
     81 x_81                   1                       0
     83 x_83                   1         -5.33333333333333
     86 x_86                   1                       0
     89 x_89                   1                       0
     95 x_95                   1                       0
     96 x_96                   1                       0
    102 x_102                  1                      -7
    108 x_108                  1                       0
    109 x_109                  1                       5
    115 x_115                  1                       0
    123 x_123                  1                       0
    127 x_127                  1                       0
    129 x_129                  1                       0
    137 x_137                  1                       1
    138 x_138                  1                       6
    141 x_141                  1                       0
    147 x_147                  1                      15
    150 x_150                  1                       0
    153 x_153                  1                       5
    160 x_160                  1                      14
    164 x_164                  1         -15.6666666666667
    167 x_167                  1                       0
    169 x_169                  1                      15
    173 x_173                  1                       0
    178 x_178                  1                       6
    185 x_185                  1                       0
    189 x_189                  1                      -2
    192 x_192                  1                       0
    194 x_194                  1                      22
    200 x_200                  1                      -9
    203 x_203                  1                      -8
    209 x_209                  1                       4
    213 x_213                  1                       5
